NAME : XML100_1323_04
DIMENSION : 101
NB_CLUSTERS : 4
CLUSTERING_ALG : KMeans
CLUSTERING_PARAMS : k(3)
CLUSTERS
1 0
2 4 5 8 16 18 22 35 38 42 45 46 49 53 54 58 63 65 66 73 75 76 78 81 85 90 91 95 97 99
3 2 3 6 10 14 15 17 19 20 21 26 27 29 31 32 33 34 37 39 40 41 47 48 50 51 52 55 57 59 60 61 62 64 67 68 70 71 72 74 77 80 83 84 86 87 88 89 92 93 94 96 100
4 1 7 9 11 12 13 23 24 25 28 30 36 43 44 56 69 79 82 98
EOF